results_rootrelaxation/bin012_090_030.srr.sol
solution status: optimal solution found
objective value:                                   33
_var155_                           0.0243362831858401 	(obj:4)
_var207_                           0.0508849557522124 	(obj:5)
_var344_                            0.044247787610621 	(obj:5)
_var366_                           0.0752212389380527 	(obj:4)
_var546_                          0.00221238938053131 	(obj:5)
_var683_                            0.216814159292035 	(obj:2)
_var691_                            0.292035398230088 	(obj:4)
_var692_                            0.106194690265486 	(obj:1)
_var695_                           0.0862831858407073 	(obj:3)
_var700_                            0.141592920353984 	(obj:3)
_var703_                            0.201327433628318 	(obj:2)
_var704_                            0.172566371681416 	(obj:3)
_var705_                            0.188053097345133 	(obj:3)
_var722_                           0.0154867256637153 	(obj:4)
_var736_                            0.581858407079646 	(obj:1)
_var741_                            0.106194690265486 	(obj:3)
_var742_                          0.00221238938053114 	(obj:4)
_var743_                            0.188053097345133 	(obj:1)
_var746_                            0.258849557522124 	(obj:4)
_var751_                            0.101769911504425 	(obj:4)
_var754_                            0.581858407079646 	(obj:2)
_var760_                           0.0176991150442486 	(obj:3)
_var766_                           0.0530973451327421 	(obj:4)
_var770_                            0.274336283185841 	(obj:3)
_var772_                            0.300884955752214 	(obj:3)
_var773_                            0.688053097345134 	(obj:3)
_var775_                            0.188053097345133 	(obj:4)
_var777_                            0.199115044247787 	(obj:3)
_var786_                            0.256637168141593 	(obj:4)
_var787_                            0.165929203539823 	(obj:1)
_var793_                            0.214601769911506 	(obj:2)
_var797_                            0.553097345132743 	(obj:4)
_var798_                           0.0641592920353979 	(obj:1)
_var805_                           0.0221238938053099 	(obj:4)
_var807_                            0.451327433628319 	(obj:4)
_var810_                            0.761061946902654 	(obj:3)
_var812_                            0.044247787610621 	(obj:2)
_var813_                             0.36504424778761 	(obj:3)
_var814_                            0.221238938053097 	(obj:4)
_var815_                            0.172566371681416 	(obj:4)
_var816_                           0.0663716814159284 	(obj:4)
_var817_                            0.221238938053098 	(obj:3)
_var821_                            0.345132743362832 	(obj:5)
_var822_                           0.0663716814159284 	(obj:1)
_var823_                            0.188053097345133 	(obj:3)
_var824_                           0.0929203539823002 	(obj:3)
_var825_                            0.418141592920354 	(obj:3)
_var826_                           0.0199115044247788 	(obj:4)
_var827_                            0.221238938053097 	(obj:2)
_var830_                            0.553097345132743 	(obj:3)
_var831_                            0.238938053097345 	(obj:3)
_var837_                          0.00442477876106195 	(obj:3)
_var840_                           0.0353982300884971 	(obj:4)
_var842_                           0.0530973451327431 	(obj:5)
_var844_                           0.0243362831858398 	(obj:4)
